c1_10_10

VEHICLE
NUMBER   CAPACITY
250     200

CUSTOMER
CUST NO. XCOORD.  YCOORD.  DEMAND  READY TIME DUE DATE  SERVICE TIME

0   250    250     0     0    1824     0
993 475 480 30 586 1162 90
864 477 478 20 696 1239 90
797 478 464 10 312 733 90
363 474 461 30 307 679 90
43 470 473 10 771 1421 90
575 483 458 10 411 952 90
60 476 483 10 482 898 90
45 478 461 10 310 686 90
19 480 455 10 908 1394 90
584 471 484 10 369 820 90
809 477 483 20 554 1007 90
280 473 475 10 996 1309 90
482 468 475 10 313 848 90
295 483 457 20 632 914 90
302 487 450 10 738 1184 90
625 470 475 30 314 975 90
187 481 456 40 796 1322 90
68 480 460 20 362 814 90
790 475 477 20 822 1297 90
180 485 454 10 636 1096 90
990 472 481 20 320 936 90
